
Gurobi 11.0.1 (win64) logging started Thu Mar 21 17:05:36 2024

Set parameter LogFile to value "C:\Projetos\Job_Rotation_Algorithms\Outputs\GurobiLogs\gurobi_log-output-28_hes-c200-CostaMirallesModel-NoExtraConstraint-2.log"
Gurobi Optimizer version 11.0.1 build v11.0.1rc0 (win64 - Windows 10.0 (19045.2))

CPU model: 11th Gen Intel(R) Core(TM) i7-1165G7 @ 2.80GHz, instruction set [SSE2|AVX|AVX2|AVX512]
Thread count: 4 physical cores, 8 logical processors, using up to 1 threads

WLS license 901039 - registered to Bitka Analytics
Optimize a model with 478 rows, 925 columns and 7609 nonzeros
Model fingerprint: 0xbff03d59
Variable types: 2 continuous, 923 integer (923 binary)
Coefficient statistics:
  Matrix range     [1e+00, 2e+02]
  Objective range  [1e+00, 1e+00]
  Bounds range     [1e+00, 4e+02]
  RHS range        [1e+00, 4e+02]
Presolve removed 131 rows and 101 columns
Presolve time: 0.05s
Presolved: 347 rows, 824 columns, 5113 nonzeros
Variable types: 0 continuous, 824 integer (823 binary)

Root relaxation: objective 5.600000e+01, 374 iterations, 0.00 seconds (0.00 work units)

    Nodes    |    Current Node    |     Objective Bounds      |     Work
 Expl Unexpl |  Obj  Depth IntInf | Incumbent    BestBd   Gap | It/Node Time

     0     0   56.00000    0   14          -   56.00000      -     -    0s
     0     0   56.00000    0  108          -   56.00000      -     -    0s
     0     0   56.00000    0   77          -   56.00000      -     -    0s
     0     0   56.00000    0   12          -   56.00000      -     -    0s
     0     0   56.00000    0   14          -   56.00000      -     -    0s
     0     0   56.00000    0   26          -   56.00000      -     -    0s
     0     0   56.00000    0   60          -   56.00000      -     -    0s
     0     0   56.00000    0   29          -   56.00000      -     -    0s
     0     0   56.00000    0   77          -   56.00000      -     -    0s
     0     0   56.00000    0   30          -   56.00000      -     -    0s
     0     0   56.00000    0   27          -   56.00000      -     -    0s
     0     2   56.00000    0   19          -   56.00000      -     -    0s
  1413   289   56.00000    9   78          -   56.00000      -   116    5s
  1964   173   56.00000   15  114          -   56.00000      -  51.4   10s
H 2088   142                      43.0000000   56.00000  30.2%  55.7   10s
* 2213    98              33      45.0000000   56.00000  24.4%  57.6   11s
* 2525   119              34      46.0000000   56.00000  21.7%  64.2   12s
  2838   119   54.01505   22  107   46.00000   56.00000  21.7%  73.9   15s
  3551    62   47.00000   32   14   46.00000   48.72994  5.93%  79.1   20s

Cutting planes:
  Cover: 14
  Clique: 11
  MIR: 1
  Flow cover: 11
  GUB cover: 5
  RLT: 6

Explored 3872 nodes (454845 simplex iterations) in 20.17 seconds (19.14 work units)
Thread count was 1 (of 8 available processors)

Solution count 3: 46 45 43 

Optimal solution found (tolerance 1.00e-03)
Best objective 4.600000000000e+01, best bound 4.600000000000e+01, gap 0.0000%
